c uprop, v00.0, 
c reading from data/prog684.c.cnf
c done reading: 0
p cnf 114 446
-61 -79 0
-65 -79 0
61 65 79 0
61 65 -85 0
-61 -65 -85 0
-61 65 85 0
61 -65 85 0
-69 79 0
-69 -71 0
69 71 -79 0
71 -74 -79 0
-71 -74 79 0
71 74 79 0
-71 74 -79 0
69 -78 0
-78 -81 0
-69 78 81 0
-69 81 -83 0
69 -81 -83 0
69 81 83 0
-69 -81 83 0
78 -84 0
-84 -86 0
-78 84 86 0
-63 -78 86 0
-63 78 -86 0
63 78 86 0
63 -78 -86 0
-59 84 0
-59 -67 0
59 67 -84 0
-58 67 -84 0
-58 -67 84 0
58 67 84 0
58 -67 -84 0
-57 59 0
-57 -72 0
57 -59 72 0
-56 -59 72 0
-56 59 -72 0
56 59 72 0
56 -59 -72 0
-55 57 0
-55 -76 0
55 -57 76 0
-54 -57 76 0
-54 57 -76 0
54 57 76 0
54 -57 -76 0
-53 -61 0
-53 -65 0
53 61 65 0
-52 61 65 0
-52 -61 -65 0
52 -61 65 0
52 61 -65 0
-51 53 0
-51 -71 0
51 -53 71 0
-50 -53 71 0
-50 53 -71 0
50 53 71 0
50 -53 -71 0
-49 51 0
-49 -81 0
49 -51 81 0
-48 -51 81 0
-48 51 -81 0
48 51 81 0
48 -51 -81 0
-47 49 0
-47 -86 0
47 -49 86 0
-49 86 -88 0
49 -86 -88 0
49 86 88 0
-49 -86 88 0
47 -89 0
-67 -89 0
-47 67 89 0
-47 67 -90 0
47 -67 -90 0
47 67 90 0
-47 -67 90 0
89 -91 0
-72 -91 0
72 -89 91 0
72 -89 -92 0
-72 89 -92 0
72 89 92 0
-72 -89 92 0
91 -93 0
-76 -93 0
76 -91 93 0
-62 76 -91 0
-62 -76 91 0
62 76 91 0
62 -76 -91 0
-82 -94 0
82 94 0
-87 94 0
87 -94 0
-68 82 0
-68 -97 0
68 -82 97 0
-73 -82 97 0
-73 82 -97 0
73 82 97 0
73 -82 -97 0
68 -77 0
-77 -99 0
-68 77 99 0
-68 99 -101 0
68 -99 -101 0
68 99 101 0
-68 -99 101 0
77 -102 0
-102 -104 0
-77 102 104 0
-77 -95 104 0
77 -95 -104 0
77 95 104 0
-77 95 -104 0
-98 102 0
-98 -106 0
98 -102 106 0
-100 -102 106 0
-100 102 -106 0
100 102 106 0
100 -102 -106 0
98 -105 0
-105 -109 0
-98 105 109 0
-98 -107 109 0
98 -107 -109 0
98 107 109 0
-98 107 -109 0
94 -110 0
-94 110 0
-97 111 0
97 -111 0
-94 -99 112 0
94 99 -112 0
99 -112 0
94 -112 0
99 -112 -113 0
94 -112 -113 0
-112 -113 0
-99 112 113 0
-94 112 113 0
94 99 -113 0
-97 -104 114 0
-104 -112 114 0
-97 -112 114 0
97 104 -114 0
104 112 -114 0
97 112 -114 0
-46 104 -114 0
-46 97 -114 0
-46 112 -114 0
46 -104 114 0
46 -97 114 0
46 -112 114 0
46 -97 -104 -112 0
-46 97 104 112 0
45 -99 -106 0
45 -106 -114 0
45 -99 -114 0
-45 99 106 0
-45 106 114 0
-45 99 114 0
-44 -45 106 0
-44 -45 99 0
-44 -45 114 0
44 45 -106 0
44 45 -99 0
44 45 -114 0
44 -99 -106 -114 0
-44 99 106 114 0
43 -104 -109 0
43 -45 -109 0
43 -45 -104 0
-43 104 109 0
-43 45 109 0
-43 45 104 0
-42 -43 109 0
-42 -43 104 0
-42 -43 45 0
42 43 -109 0
42 43 -104 0
42 43 -45 0
42 -45 -104 -109 0
-42 45 104 109 0
-41 106 0
-41 43 0
41 -43 -106 0
-40 -43 -106 0
-40 43 106 0
40 43 -106 0
40 -43 106 0
-39 109 0
-39 41 0
39 -41 -109 0
-38 -41 -109 0
-38 41 109 0
38 41 -109 0
38 -41 109 0
-37 113 0
37 -113 0
36 -46 0
-36 46 0
35 -44 -94 0
-35 44 94 0
-35 44 0
-35 94 0
-34 -35 44 0
-34 -35 94 0
-34 -35 0
34 35 -44 0
34 35 -94 0
-34 44 94 0
33 -42 -97 0
33 -35 -42 0
33 -35 -97 0
-33 42 97 0
-33 35 42 0
-33 35 97 0
-32 -33 42 0
-32 -33 97 0
-32 -33 35 0
32 33 -42 0
32 33 -97 0
32 33 -35 0
32 -35 -42 -97 0
-32 35 42 97 0
31 -40 -99 0
31 -33 -40 0
31 -33 -99 0
-31 40 99 0
-31 33 40 0
-31 33 99 0
-30 -31 40 0
-30 -31 99 0
-30 -31 33 0
30 31 -40 0
30 31 -99 0
30 31 -33 0
30 -33 -40 -99 0
-30 33 40 99 0
29 -38 -104 0
29 -31 -38 0
29 -31 -104 0
-29 38 104 0
-29 31 38 0
-29 31 104 0
-28 -29 38 0
-28 -29 104 0
-28 -29 31 0
28 29 -38 0
28 29 -104 0
28 29 -31 0
28 -31 -38 -104 0
-28 31 38 104 0
27 -39 -106 0
27 -29 -39 0
27 -29 -106 0
-27 39 106 0
-27 29 39 0
-27 29 106 0
-26 -27 39 0
-26 -27 106 0
-26 -27 29 0
26 27 -39 0
26 27 -106 0
26 27 -29 0
26 -29 -39 -106 0
-26 29 39 106 0
-25 109 0
-25 27 0
25 -27 -109 0
-24 -27 -109 0
-24 27 109 0
24 27 -109 0
24 -27 109 0
-23 -110 0
23 110 0
-22 110 0
22 -110 0
-21 23 0
-21 -111 0
21 -23 111 0
-20 -23 111 0
-20 23 -111 0
20 23 111 0
20 -23 -111 0
-19 21 0
-19 -37 0
19 -21 37 0
-18 -21 37 0
-18 21 -37 0
18 21 37 0
18 -21 -37 0
-17 19 0
-17 -36 0
17 -19 36 0
-16 -19 36 0
-16 19 -36 0
16 19 36 0
16 -19 -36 0
-15 17 0
-15 -34 0
15 -17 34 0
-14 -17 34 0
-14 17 -34 0
14 17 34 0
14 -17 -34 0
-13 15 0
-13 -32 0
13 -15 32 0
-12 -15 32 0
-12 15 -32 0
12 15 32 0
12 -15 -32 0
-11 13 0
-11 -30 0
11 -13 30 0
-10 -13 30 0
-10 13 -30 0
10 13 30 0
10 -13 -30 0
-9 11 0
-9 -28 0
9 -11 28 0
-8 -11 28 0
-8 11 -28 0
8 11 28 0
8 -11 -28 0
-7 9 0
-7 -26 0
7 -9 26 0
-6 -9 26 0
-6 9 -26 0
6 9 26 0
6 -9 -26 0
-5 7 0
-5 -24 0
5 -7 24 0
-7 24 -60 0
7 -24 -60 0
7 24 60 0
-7 -24 60 0
5 -64 0
-25 -64 0
-5 25 64 0
-5 25 -70 0
5 -25 -70 0
5 25 70 0
-5 -25 70 0
61 -80 0
-80 110 0
-61 80 -110 0
-61 110 0
61 -110 0
-65 66 -111 0
-65 66 -80 0
66 -80 -111 0
65 -66 111 0
65 -66 80 0
-66 80 111 0
65 -66 0
-66 111 0
-66 80 0
65 80 111 0
-37 -71 75 0
-66 -71 75 0
-37 -66 75 0
37 71 -75 0
66 71 -75 0
37 66 -75 0
71 -75 0
37 -75 0
66 -75 0
37 66 71 0
4 -36 -81 0
4 -75 -81 0
4 -36 -75 0
-4 36 81 0
-4 75 81 0
-4 36 75 0
4 -81 0
4 -36 0
4 -75 0
-36 -75 -81 0
-34 -86 96 0
-4 -86 96 0
-4 -34 96 0
34 86 -96 0
4 86 -96 0
4 34 -96 0
-86 96 0
-34 96 0
-4 96 0
-4 -34 -86 0
-32 -67 103 0
-67 -96 103 0
-32 -96 103 0
32 67 -103 0
67 96 -103 0
32 96 -103 0
-67 103 0
-32 103 0
-96 103 0
-32 -67 -96 0
-30 -72 108 0
-72 -103 108 0
-30 -103 108 0
30 72 -108 0
72 103 -108 0
30 103 -108 0
-72 108 0
-30 108 0
-103 108 0
-30 -72 -103 0
3 -28 -76 0
3 -76 -108 0
3 -28 -108 0
-3 28 76 0
-3 76 108 0
-3 28 108 0
3 -76 0
3 -28 0
3 -108 0
-28 -76 -108 0
-2 26 0
-2 3 0
2 -3 -26 0
3 -26 0
-3 26 0
-1 24 0
-1 2 0
1 -2 -24 0
2 -24 0
-2 24 0
-1 -25 0
1 -25 0
-1 25 0
